c Output_time 26.03.2020 18:13:18_+0100 1585242798539362286
c ** Program information **
c program_name                          "QBRG_debug"
c version                               "0.3.20"
c date                                  "25.3.2020"
c gid_id                                "673970833836058123f633335630c185360d632e"
c author                                "Oliver Kullmann"
c url                                   "https://github.com/OKullmann/oklibrary/blob/master/Satisfiability/Transformers/Generators/Random/QBRG.cpp"
c ** Machine information **
c machine_name                          "chyna-Lenovo-G50-70"
c bogomips                              3791.08
c ** Compilation information **
c compiler_version                      "g++ 7.5.0"
c compilation_date                      "Mar_26_2020 11:16:30"
c compilation_options                   "--std=c++17 -pedantic -fmax-errors=5 -Wall -Wextra -g -D_GLIBCXX_DEBUG"
c NDEBUG                                0
c OPTIMIZE                              0
c ** Parameters **
c command-line                          "./QBRG_debug" "e40 a40 40" "391*1,1|2-2,1|3-3,1" "" "1,t" ""
c output                                "QuBlRaGe_120_391_1585242798539041909.qdimacs"
c options                               "filtered,renamed"
c num_quantifier_blocks                 3
c  quantifier_blocks                    1:e1-40 2:a41-80 3:e81-120
c num_clause-blocks                     1
c  clause-blocks                        391 * {1-40,1,1/2} | {41-80,1,1/2} | {81-120,1,1/2}
c num_e-seeds                           30+2=32
c  e-seeds                              1 0 1 0 4 120 2 40 1 40 0 40 1 391 3 1 1 1 1 2 2 2 1 1 2 3 3 1 1 2 1 1585242798539041240
p cnf 120 391
e 1 2 3 4 5 6 7 8 9 10 11 12 13 14 15 16 17 18 19 20 21 22 23 24 25 26 27 28 29 30 31 32 33 34 35 36 37 38 39 40 0
a 41 42 43 44 45 46 47 48 49 50 51 52 53 54 55 56 57 58 59 60 61 62 63 64 65 66 67 68 69 70 71 72 73 74 75 76 77 78 79 80 0
e 81 82 83 84 85 86 87 88 89 90 91 92 93 94 95 96 97 98 99 100 101 102 103 104 105 106 107 108 109 110 111 112 113 114 115 116 117 118 119 120 0
-6 -58 -81 0
-11 -79 -81 0
40 42 81 0
-28 -43 81 0
-8 54 81 0
-10 -78 81 0
27 -45 -82 0
-14 46 -82 0
31 -59 -82 0
32 -65 -82 0
-36 73 -82 0
18 -42 82 0
-20 45 82 0
38 -51 82 0
-3 49 -83 0
1 -55 -83 0
40 -55 -83 0
-21 -62 -83 0
15 75 -83 0
-12 -45 83 0
10 -51 83 0
2 54 83 0
2 57 83 0
21 68 83 0
-40 -71 83 0
-26 76 83 0
-1 78 83 0
39 -44 -84 0
12 -64 -84 0
36 -49 84 0
1 -56 84 0
-31 -58 84 0
4 58 84 0
16 -63 84 0
27 63 84 0
23 -66 84 0
-35 73 84 0
26 -44 -85 0
36 53 -85 0
6 54 -85 0
5 57 -85 0
-23 -72 -85 0
-35 -47 85 0
10 -55 85 0
-10 58 85 0
-33 -44 -86 0
39 44 -86 0
-5 -46 -86 0
-31 -50 -86 0
-39 61 -86 0
21 63 -86 0
-6 64 -86 0
31 -67 -86 0
19 -72 -86 0
-14 -43 86 0
5 -41 -87 0
10 65 -87 0
21 70 -87 0
-4 -77 -87 0
-17 48 87 0
-30 -64 87 0
19 -71 87 0
29 71 87 0
-17 -74 87 0
16 75 87 0
-8 -58 -88 0
-5 71 -88 0
37 -79 -88 0
35 70 88 0
6 -57 -89 0
40 -73 -89 0
-32 -42 89 0
31 -57 89 0
29 -60 89 0
35 63 89 0
5 -73 89 0
-2 76 89 0
-38 76 89 0
1 -43 -90 0
-15 43 -90 0
-8 -46 -90 0
-24 66 -90 0
-2 68 -90 0
-39 59 90 0
-11 63 90 0
32 -45 -91 0
18 -46 -91 0
-11 -49 -91 0
-1 53 -91 0
-28 55 -91 0
-1 -46 91 0
-7 -48 91 0
-13 -66 91 0
25 -78 91 0
40 -41 -92 0
9 -43 -92 0
-20 44 -92 0
16 -48 -92 0
34 -51 -92 0
-2 52 -92 0
-23 -53 -92 0
-36 53 -92 0
-21 -56 -92 0
32 -50 92 0
12 50 92 0
-3 -52 92 0
-20 55 92 0
-34 -62 92 0
-22 75 92 0
-33 -78 92 0
-17 -41 -93 0
-26 48 -93 0
29 -61 -93 0
29 -42 93 0
-4 -55 93 0
-21 55 93 0
-2 -61 93 0
-10 -49 -94 0
-25 -66 -94 0
-21 -80 -94 0
-7 -45 94 0
39 46 94 0
6 -51 94 0
19 -57 94 0
21 73 94 0
32 77 94 0
17 -79 94 0
-26 80 94 0
21 -41 -95 0
8 41 -95 0
-15 -46 -95 0
-29 -73 -95 0
6 -80 -95 0
19 53 95 0
-30 -65 95 0
24 78 95 0
17 -44 -96 0
-37 -61 -96 0
31 -65 -96 0
-1 41 96 0
-17 49 96 0
-20 54 96 0
4 60 96 0
20 -61 96 0
1 -70 96 0
-5 -77 96 0
-13 -41 -97 0
35 41 -97 0
-5 46 -97 0
3 48 -97 0
11 -49 -97 0
-5 -53 -97 0
27 -65 -97 0
36 -66 -97 0
39 -67 -97 0
26 69 -97 0
34 71 -97 0
5 -57 97 0
-26 60 97 0
14 -63 97 0
-6 -69 97 0
-36 -46 -98 0
-25 -51 -98 0
-10 -59 -98 0
10 -67 -98 0
-6 -75 -98 0
-1 52 98 0
-1 -65 98 0
-31 68 98 0
14 73 98 0
19 74 98 0
9 -76 98 0
12 -42 -99 0
-3 46 -99 0
27 -49 -99 0
-23 55 -99 0
37 -57 -99 0
40 -67 -99 0
30 75 -99 0
3 -79 -99 0
10 44 99 0
-3 -58 99 0
-34 -60 99 0
12 -77 99 0
4 -80 99 0
10 -44 -100 0
-14 63 -100 0
6 -47 100 0
32 -52 100 0
11 -60 100 0
29 69 100 0
-16 75 100 0
-31 80 100 0
36 -49 -101 0
-38 54 -101 0
1 55 -101 0
-35 55 101 0
29 -56 101 0
30 56 101 0
-20 -63 101 0
14 68 101 0
-4 73 101 0
2 43 -102 0
-36 -48 -102 0
8 48 -102 0
9 50 -102 0
16 -71 -102 0
-9 79 -102 0
34 44 102 0
-30 45 102 0
-30 47 102 0
40 53 102 0
-27 -62 102 0
13 70 102 0
-37 -75 102 0
-10 48 -103 0
36 59 -103 0
-20 71 -103 0
-17 -80 -103 0
29 41 103 0
-38 -56 103 0
1 61 103 0
-8 -62 103 0
-23 67 103 0
-29 71 103 0
14 -73 103 0
22 -80 103 0
7 44 -104 0
-24 51 -104 0
31 65 -104 0
-34 66 -104 0
-19 -68 -104 0
33 -78 -104 0
-22 42 104 0
-2 45 104 0
-31 54 104 0
10 74 104 0
31 -75 104 0
7 78 104 0
9 -52 -105 0
16 -55 -105 0
9 65 -105 0
25 73 -105 0
-24 -72 105 0
10 -52 -106 0
38 -59 -106 0
-23 60 -106 0
-33 -62 -106 0
-6 -73 -106 0
-5 -75 -106 0
34 76 -106 0
-7 -47 106 0
-37 51 106 0
-40 51 106 0
-8 56 106 0
30 -62 106 0
-40 66 106 0
-24 68 106 0
-19 -77 106 0
-15 80 106 0
12 56 -107 0
-10 61 -107 0
-40 71 -107 0
34 78 -107 0
37 42 107 0
30 44 107 0
-21 53 107 0
-21 70 107 0
-7 78 107 0
33 -45 -108 0
-25 55 -108 0
-5 -57 -108 0
35 -57 -108 0
38 -57 -108 0
36 -76 -108 0
11 64 108 0
2 69 108 0
24 -71 108 0
11 -72 108 0
36 74 108 0
-23 -44 -109 0
7 -58 -109 0
-14 77 -109 0
15 -52 109 0
4 -56 109 0
-28 -57 109 0
-17 67 109 0
25 -62 -110 0
23 65 -110 0
-34 69 -110 0
-10 -76 -110 0
-13 -50 110 0
14 -56 110 0
-15 -68 110 0
-12 46 -111 0
36 46 -111 0
-9 -49 -111 0
-3 -60 -111 0
37 69 -111 0
2 -42 111 0
-22 -58 111 0
-27 -58 111 0
7 63 111 0
-27 -70 111 0
-20 79 111 0
-9 -41 -112 0
40 -51 -112 0
-8 -61 -112 0
35 70 -112 0
-15 -71 -112 0
5 71 -112 0
24 43 112 0
8 45 112 0
19 46 112 0
-13 -47 112 0
40 -77 112 0
23 -44 -113 0
-8 55 -113 0
37 62 -113 0
21 63 -113 0
-2 -45 113 0
-31 -56 -114 0
-5 56 -114 0
39 59 -114 0
-5 61 -114 0
-18 62 -114 0
3 66 -114 0
-31 72 -114 0
19 77 -114 0
29 -79 -114 0
-20 -45 114 0
25 51 114 0
10 56 114 0
-14 -59 114 0
-30 60 114 0
-37 42 115 0
7 -46 115 0
-35 -51 115 0
22 52 115 0
-22 58 115 0
11 77 115 0
5 42 -116 0
5 -46 -116 0
-21 58 -116 0
3 60 -116 0
-19 -68 -116 0
32 -71 -116 0
31 -72 -116 0
-7 72 -116 0
-30 76 -116 0
15 -51 116 0
-22 -53 116 0
7 61 116 0
18 66 116 0
-9 -44 117 0
11 -61 117 0
-14 72 117 0
-18 79 117 0
12 -80 117 0
-37 80 117 0
26 42 -118 0
20 47 -118 0
10 49 -118 0
-28 55 -118 0
8 -58 -118 0
-38 -62 -118 0
-31 64 -118 0
19 51 118 0
37 52 118 0
-19 -54 118 0
29 -59 118 0
-2 43 -119 0
31 48 -119 0
-37 -54 -119 0
-33 67 -119 0
-13 -69 -119 0
-25 43 119 0
6 -47 119 0
-40 -52 119 0
-26 -57 119 0
-3 -57 -120 0
18 61 -120 0
36 69 -120 0
-33 71 -120 0
-22 -79 -120 0
5 -50 120 0
-1 52 120 0
22 57 120 0
40 59 120 0
-39 -62 120 0
35 76 120 0
